          29
          60
           1          18           6
           2          12           2
           3           7          10
           4          23           4
           5           1           4
           6           7           7
           7           4          11
           8           5           6
           9           7           2
          10          11           6
          11          19          10
          12           5          11
          13           2           4
          14           5           7
          15           2           4
          16          12           7
          17          13           7
          18           6           3
          19          10           6
          20          16           9
          21           4           1
          22          10           4
          23          24           6
          24           9           9
          25           1           2
          26           5           8
          27           5           3
          28          25           7
          29          21           5
